(set-logic QF_LRA)
(declare-fun X0 () Real )
(declare-fun Y0 () Real )
(declare-fun X1 () Real )
(declare-fun Y1 () Real )
(declare-fun X2 () Real )
(declare-fun Y2 () Real )
(declare-fun X3 () Real )
(declare-fun Y3 () Real )
(declare-fun X4 () Real )
(declare-fun Y4 () Real )
(declare-fun X5 () Real )
(declare-fun Y5 () Real )
(declare-fun X6 () Real )
(declare-fun Y6 () Real )
(declare-fun X7 () Real )
(declare-fun Y7 () Real )
(declare-fun X8 () Real )
(declare-fun Y8 () Real )
(declare-fun X9 () Real )
(declare-fun Y9 () Real )
(declare-fun X10 () Real )
(declare-fun Y10 () Real )
(declare-fun X11 () Real )
(declare-fun Y11 () Real )
(declare-fun Z () Real )
(assert ( and  
( or ( <= ( + X0 57 ) X1 )  ( <= ( + X1 85 ) X0 )  ( <= ( + Y0 63 ) Y1 )  ( <= ( + Y1 66 ) Y0 )  )
( or ( <= ( + X0 57 ) X2 )  ( <= ( + X2 85 ) X0 )  ( <= ( + Y0 63 ) Y2 )  ( <= ( + Y2 15 ) Y0 )  )
( or ( <= ( + X0 57 ) X3 )  ( <= ( + X3 30 ) X0 )  ( <= ( + Y0 63 ) Y3 )  ( <= ( + Y3 48 ) Y0 )  )
( or ( <= ( + X0 57 ) X4 )  ( <= ( + X4 3 ) X0 )  ( <= ( + Y0 63 ) Y4 )  ( <= ( + Y4 79 ) Y0 )  )
( or ( <= ( + X0 57 ) X5 )  ( <= ( + X5 97 ) X0 )  ( <= ( + Y0 63 ) Y5 )  ( <= ( + Y5 68 ) Y0 )  )
( or ( <= ( + X0 57 ) X6 )  ( <= ( + X6 55 ) X0 )  ( <= ( + Y0 63 ) Y6 )  ( <= ( + Y6 92 ) Y0 )  )
( or ( <= ( + X0 57 ) X7 )  ( <= ( + X7 33 ) X0 )  ( <= ( + Y0 63 ) Y7 )  ( <= ( + Y7 68 ) Y0 )  )
( or ( <= ( + X0 57 ) X8 )  ( <= ( + X8 1 ) X0 )  ( <= ( + Y0 63 ) Y8 )  ( <= ( + Y8 66 ) Y0 )  )
( or ( <= ( + X0 57 ) X9 )  ( <= ( + X9 62 ) X0 )  ( <= ( + Y0 63 ) Y9 )  ( <= ( + Y9 1 ) Y0 )  )
( or ( <= ( + X0 57 ) X10 )  ( <= ( + X10 85 ) X0 )  ( <= ( + Y0 63 ) Y10 )  ( <= ( + Y10 21 ) Y0 )  )
( or ( <= ( + X0 57 ) X11 )  ( <= ( + X11 37 ) X0 )  ( <= ( + Y0 63 ) Y11 )  ( <= ( + Y11 90 ) Y0 )  )
( or ( <= ( + X1 85 ) X2 )  ( <= ( + X2 85 ) X1 )  ( <= ( + Y1 66 ) Y2 )  ( <= ( + Y2 15 ) Y1 )  )
( or ( <= ( + X1 85 ) X3 )  ( <= ( + X3 30 ) X1 )  ( <= ( + Y1 66 ) Y3 )  ( <= ( + Y3 48 ) Y1 )  )
( or ( <= ( + X1 85 ) X4 )  ( <= ( + X4 3 ) X1 )  ( <= ( + Y1 66 ) Y4 )  ( <= ( + Y4 79 ) Y1 )  )
( or ( <= ( + X1 85 ) X5 )  ( <= ( + X5 97 ) X1 )  ( <= ( + Y1 66 ) Y5 )  ( <= ( + Y5 68 ) Y1 )  )
( or ( <= ( + X1 85 ) X6 )  ( <= ( + X6 55 ) X1 )  ( <= ( + Y1 66 ) Y6 )  ( <= ( + Y6 92 ) Y1 )  )
( or ( <= ( + X1 85 ) X7 )  ( <= ( + X7 33 ) X1 )  ( <= ( + Y1 66 ) Y7 )  ( <= ( + Y7 68 ) Y1 )  )
( or ( <= ( + X1 85 ) X8 )  ( <= ( + X8 1 ) X1 )  ( <= ( + Y1 66 ) Y8 )  ( <= ( + Y8 66 ) Y1 )  )
( or ( <= ( + X1 85 ) X9 )  ( <= ( + X9 62 ) X1 )  ( <= ( + Y1 66 ) Y9 )  ( <= ( + Y9 1 ) Y1 )  )
( or ( <= ( + X1 85 ) X10 )  ( <= ( + X10 85 ) X1 )  ( <= ( + Y1 66 ) Y10 )  ( <= ( + Y10 21 ) Y1 )  )
( or ( <= ( + X1 85 ) X11 )  ( <= ( + X11 37 ) X1 )  ( <= ( + Y1 66 ) Y11 )  ( <= ( + Y11 90 ) Y1 )  )
( or ( <= ( + X2 85 ) X3 )  ( <= ( + X3 30 ) X2 )  ( <= ( + Y2 15 ) Y3 )  ( <= ( + Y3 48 ) Y2 )  )
( or ( <= ( + X2 85 ) X4 )  ( <= ( + X4 3 ) X2 )  ( <= ( + Y2 15 ) Y4 )  ( <= ( + Y4 79 ) Y2 )  )
( or ( <= ( + X2 85 ) X5 )  ( <= ( + X5 97 ) X2 )  ( <= ( + Y2 15 ) Y5 )  ( <= ( + Y5 68 ) Y2 )  )
( or ( <= ( + X2 85 ) X6 )  ( <= ( + X6 55 ) X2 )  ( <= ( + Y2 15 ) Y6 )  ( <= ( + Y6 92 ) Y2 )  )
( or ( <= ( + X2 85 ) X7 )  ( <= ( + X7 33 ) X2 )  ( <= ( + Y2 15 ) Y7 )  ( <= ( + Y7 68 ) Y2 )  )
( or ( <= ( + X2 85 ) X8 )  ( <= ( + X8 1 ) X2 )  ( <= ( + Y2 15 ) Y8 )  ( <= ( + Y8 66 ) Y2 )  )
( or ( <= ( + X2 85 ) X9 )  ( <= ( + X9 62 ) X2 )  ( <= ( + Y2 15 ) Y9 )  ( <= ( + Y9 1 ) Y2 )  )
( or ( <= ( + X2 85 ) X10 )  ( <= ( + X10 85 ) X2 )  ( <= ( + Y2 15 ) Y10 )  ( <= ( + Y10 21 ) Y2 )  )
( or ( <= ( + X2 85 ) X11 )  ( <= ( + X11 37 ) X2 )  ( <= ( + Y2 15 ) Y11 )  ( <= ( + Y11 90 ) Y2 )  )
( or ( <= ( + X3 30 ) X4 )  ( <= ( + X4 3 ) X3 )  ( <= ( + Y3 48 ) Y4 )  ( <= ( + Y4 79 ) Y3 )  )
( or ( <= ( + X3 30 ) X5 )  ( <= ( + X5 97 ) X3 )  ( <= ( + Y3 48 ) Y5 )  ( <= ( + Y5 68 ) Y3 )  )
( or ( <= ( + X3 30 ) X6 )  ( <= ( + X6 55 ) X3 )  ( <= ( + Y3 48 ) Y6 )  ( <= ( + Y6 92 ) Y3 )  )
( or ( <= ( + X3 30 ) X7 )  ( <= ( + X7 33 ) X3 )  ( <= ( + Y3 48 ) Y7 )  ( <= ( + Y7 68 ) Y3 )  )
( or ( <= ( + X3 30 ) X8 )  ( <= ( + X8 1 ) X3 )  ( <= ( + Y3 48 ) Y8 )  ( <= ( + Y8 66 ) Y3 )  )
( or ( <= ( + X3 30 ) X9 )  ( <= ( + X9 62 ) X3 )  ( <= ( + Y3 48 ) Y9 )  ( <= ( + Y9 1 ) Y3 )  )
( or ( <= ( + X3 30 ) X10 )  ( <= ( + X10 85 ) X3 )  ( <= ( + Y3 48 ) Y10 )  ( <= ( + Y10 21 ) Y3 )  )
( or ( <= ( + X3 30 ) X11 )  ( <= ( + X11 37 ) X3 )  ( <= ( + Y3 48 ) Y11 )  ( <= ( + Y11 90 ) Y3 )  )
( or ( <= ( + X4 3 ) X5 )  ( <= ( + X5 97 ) X4 )  ( <= ( + Y4 79 ) Y5 )  ( <= ( + Y5 68 ) Y4 )  )
( or ( <= ( + X4 3 ) X6 )  ( <= ( + X6 55 ) X4 )  ( <= ( + Y4 79 ) Y6 )  ( <= ( + Y6 92 ) Y4 )  )
( or ( <= ( + X4 3 ) X7 )  ( <= ( + X7 33 ) X4 )  ( <= ( + Y4 79 ) Y7 )  ( <= ( + Y7 68 ) Y4 )  )
( or ( <= ( + X4 3 ) X8 )  ( <= ( + X8 1 ) X4 )  ( <= ( + Y4 79 ) Y8 )  ( <= ( + Y8 66 ) Y4 )  )
( or ( <= ( + X4 3 ) X9 )  ( <= ( + X9 62 ) X4 )  ( <= ( + Y4 79 ) Y9 )  ( <= ( + Y9 1 ) Y4 )  )
( or ( <= ( + X4 3 ) X10 )  ( <= ( + X10 85 ) X4 )  ( <= ( + Y4 79 ) Y10 )  ( <= ( + Y10 21 ) Y4 )  )
( or ( <= ( + X4 3 ) X11 )  ( <= ( + X11 37 ) X4 )  ( <= ( + Y4 79 ) Y11 )  ( <= ( + Y11 90 ) Y4 )  )
( or ( <= ( + X5 97 ) X6 )  ( <= ( + X6 55 ) X5 )  ( <= ( + Y5 68 ) Y6 )  ( <= ( + Y6 92 ) Y5 )  )
( or ( <= ( + X5 97 ) X7 )  ( <= ( + X7 33 ) X5 )  ( <= ( + Y5 68 ) Y7 )  ( <= ( + Y7 68 ) Y5 )  )
( or ( <= ( + X5 97 ) X8 )  ( <= ( + X8 1 ) X5 )  ( <= ( + Y5 68 ) Y8 )  ( <= ( + Y8 66 ) Y5 )  )
( or ( <= ( + X5 97 ) X9 )  ( <= ( + X9 62 ) X5 )  ( <= ( + Y5 68 ) Y9 )  ( <= ( + Y9 1 ) Y5 )  )
( or ( <= ( + X5 97 ) X10 )  ( <= ( + X10 85 ) X5 )  ( <= ( + Y5 68 ) Y10 )  ( <= ( + Y10 21 ) Y5 )  )
( or ( <= ( + X5 97 ) X11 )  ( <= ( + X11 37 ) X5 )  ( <= ( + Y5 68 ) Y11 )  ( <= ( + Y11 90 ) Y5 )  )
( or ( <= ( + X6 55 ) X7 )  ( <= ( + X7 33 ) X6 )  ( <= ( + Y6 92 ) Y7 )  ( <= ( + Y7 68 ) Y6 )  )
( or ( <= ( + X6 55 ) X8 )  ( <= ( + X8 1 ) X6 )  ( <= ( + Y6 92 ) Y8 )  ( <= ( + Y8 66 ) Y6 )  )
( or ( <= ( + X6 55 ) X9 )  ( <= ( + X9 62 ) X6 )  ( <= ( + Y6 92 ) Y9 )  ( <= ( + Y9 1 ) Y6 )  )
( or ( <= ( + X6 55 ) X10 )  ( <= ( + X10 85 ) X6 )  ( <= ( + Y6 92 ) Y10 )  ( <= ( + Y10 21 ) Y6 )  )
( or ( <= ( + X6 55 ) X11 )  ( <= ( + X11 37 ) X6 )  ( <= ( + Y6 92 ) Y11 )  ( <= ( + Y11 90 ) Y6 )  )
( or ( <= ( + X7 33 ) X8 )  ( <= ( + X8 1 ) X7 )  ( <= ( + Y7 68 ) Y8 )  ( <= ( + Y8 66 ) Y7 )  )
( or ( <= ( + X7 33 ) X9 )  ( <= ( + X9 62 ) X7 )  ( <= ( + Y7 68 ) Y9 )  ( <= ( + Y9 1 ) Y7 )  )
( or ( <= ( + X7 33 ) X10 )  ( <= ( + X10 85 ) X7 )  ( <= ( + Y7 68 ) Y10 )  ( <= ( + Y10 21 ) Y7 )  )
( or ( <= ( + X7 33 ) X11 )  ( <= ( + X11 37 ) X7 )  ( <= ( + Y7 68 ) Y11 )  ( <= ( + Y11 90 ) Y7 )  )
( or ( <= ( + X8 1 ) X9 )  ( <= ( + X9 62 ) X8 )  ( <= ( + Y8 66 ) Y9 )  ( <= ( + Y9 1 ) Y8 )  )
( or ( <= ( + X8 1 ) X10 )  ( <= ( + X10 85 ) X8 )  ( <= ( + Y8 66 ) Y10 )  ( <= ( + Y10 21 ) Y8 )  )
( or ( <= ( + X8 1 ) X11 )  ( <= ( + X11 37 ) X8 )  ( <= ( + Y8 66 ) Y11 )  ( <= ( + Y11 90 ) Y8 )  )
( or ( <= ( + X9 62 ) X10 )  ( <= ( + X10 85 ) X9 )  ( <= ( + Y9 1 ) Y10 )  ( <= ( + Y10 21 ) Y9 )  )
( or ( <= ( + X9 62 ) X11 )  ( <= ( + X11 37 ) X9 )  ( <= ( + Y9 1 ) Y11 )  ( <= ( + Y11 90 ) Y9 )  )
( or ( <= ( + X10 85 ) X11 )  ( <= ( + X11 37 ) X10 )  ( <= ( + Y10 21 ) Y11 )  ( <= ( + Y11 90 ) Y10 )  )
( >= X0 0)
( <= ( + X0 57) Z)
( >= Y0 0)
( <= ( + Y0 63 ) 173)
( >= X1 0)
( <= ( + X1 85) Z)
( >= Y1 0)
( <= ( + Y1 66 ) 173)
( >= X2 0)
( <= ( + X2 85) Z)
( >= Y2 0)
( <= ( + Y2 15 ) 173)
( >= X3 0)
( <= ( + X3 30) Z)
( >= Y3 0)
( <= ( + Y3 48 ) 173)
( >= X4 0)
( <= ( + X4 3) Z)
( >= Y4 0)
( <= ( + Y4 79 ) 173)
( >= X5 0)
( <= ( + X5 97) Z)
( >= Y5 0)
( <= ( + Y5 68 ) 173)
( >= X6 0)
( <= ( + X6 55) Z)
( >= Y6 0)
( <= ( + Y6 92 ) 173)
( >= X7 0)
( <= ( + X7 33) Z)
( >= Y7 0)
( <= ( + Y7 68 ) 173)
( >= X8 0)
( <= ( + X8 1) Z)
( >= Y8 0)
( <= ( + Y8 66 ) 173)
( >= X9 0)
( <= ( + X9 62) Z)
( >= Y9 0)
( <= ( + Y9 1 ) 173)
( >= X10 0)
( <= ( + X10 85) Z)
( >= Y10 0)
( <= ( + Y10 21 ) 173)
( >= X11 0)
( <= ( + X11 37) Z)
( >= Y11 0)
( <= ( + Y11 90 ) 173)
) )
(minimize Z)
(check-sat)
